results/res_prop_muc/res_Cimatti_mathsat_cores/QF_UF/SEQ018_size7.smt.smt2.out

real	0m0.451s
user	0m0.388s
sys	0m0.026s
