results/res_prop_muc/res_Cimatti_mathsat_cores/QF_UF/SEQ018_size7.smt.smt2.res
unsat
( _c0
  _c1
  _c10
  _c1000
  _c1001
  _c1002
  _c103
  _c11
  _c1101
  _c1102
  _c1103
  _c1104
  _c1105
  _c1106
  _c1107
  _c1112
  _c1113
  _c1114
  _c1115
  _c1116
  _c1117
  _c1118
  _c1119
  _c1120
  _c1121
  _c1122
  _c1123
  _c1124
  _c1125
  _c1126
  _c1127
  _c1128
  _c1129
  _c1130
  _c1131
  _c12
  _c13
  _c136
  _c144
  _c15
  _c16
  _c165
  _c166
  _c167
  _c168
  _c169
  _c17
  _c18
  _c19
  _c2
  _c202
  _c23
  _c24
  _c243
  _c244
  _c25
  _c29
  _c3
  _c30
  _c304
  _c31
  _c32
  _c33
  _c354
  _c369
  _c37
  _c370
  _c38
  _c39
  _c4
  _c40
  _c41
  _c412
  _c44
  _c450
  _c451
  _c452
  _c453
  _c454
  _c455
  _c457
  _c458
  _c459
  _c460
  _c461
  _c464
  _c465
  _c466
  _c467
  _c47
  _c471
  _c472
  _c473
  _c478
  _c479
  _c48
  _c485
  _c49
  _c492
  _c5
  _c50
  _c500
  _c501
  _c502
  _c503
  _c504
  _c505
  _c506
  _c507
  _c508
  _c509
  _c51
  _c510
  _c513
  _c514
  _c516
  _c52
  _c520
  _c521
  _c522
  _c527
  _c528
  _c53
  _c535
  _c54
  _c540
  _c541
  _c544
  _c545
  _c546
  _c547
  _c548
  _c549
  _c55
  _c551
  _c552
  _c553
  _c554
  _c555
  _c556
  _c557
  _c56
  _c560
  _c561
  _c565
  _c567
  _c568
  _c570
  _c571
  _c573
  _c575
  _c577
  _c58
  _c581
  _c583
  _c584
  _c585
  _c586
  _c587
  _c588
  _c589
  _c592
  _c593
  _c594
  _c595
  _c596
  _c598
  _c6
  _c601
  _c606
  _c608
  _c609
  _c61
  _c614
  _c619
  _c620
  _c622
  _c623
  _c627
  _c629
  _c630
  _c638
  _c64
  _c640
  _c643
  _c655
  _c656
  _c657
  _c658
  _c659
  _c662
  _c664
  _c67
  _c670
  _c672
  _c673
  _c676
  _c677
  _c678
  _c679
  _c68
  _c683
  _c685
  _c69
  _c690
  _c692
  _c693
  _c698
  _c699
  _c7
  _c70
  _c701
  _c71
  _c710
  _c713
  _c714
  _c715
  _c719
  _c72
  _c721
  _c722
  _c726
  _c729
  _c731
  _c733
  _c74
  _c740
  _c746
  _c748
  _c75
  _c755
  _c757
  _c76
  _c766
  _c767
  _c770
  _c776
  _c778
  _c78
  _c781
  _c784
  _c787
  _c788
  _c79
  _c790
  _c791
  _c796
  _c798
  _c799
  _c8
  _c80
  _c803
  _c805
  _c806
  _c812
  _c82
  _c827
  _c83
  _c830
  _c837
  _c839
  _c840
  _c844
  _c845
  _c846
  _c847
  _c85
  _c852
  _c855
  _c86
  _c860
  _c862
  _c869
  _c88
  _c880
  _c890
  _c895
  _c9
  _c90
  _c901
  _c91
  _c910
  _c92
  _c93
  _c94
  _c940
  _c941
  _c942
  _c943
  _c944
  _c945
  _c946
  _c95
  _c950
  _c951
  _c952
  _c953
  _c954
  _c956
  _c957
  _c958
  _c959
  _c96
  _c960
  _c964
  _c965
  _c966
  _c967
  _c970
  _c972
  _c973
  _c977
  _c978
  _c98
  _c980
  _c981
  _c984
  _c985
  _c986
  _c988
  _c993
  _c996
  _c997
  _c998
  _c999 )
